(set-logic QF_S)
(declare-fun var_0xINPUT_121274 () String)
(assert (and (= (len var_0xINPUT_121274) 0) (= (len var_0xINPUT_121274) 0) (not (= var_0xINPUT_121274 "6JX7G3VKFq"))))
(check-sat var_0xINPUT_121274)